NAME: Random_95_1
ELLAPSED_TIME_(ms): 1930
TOUR_SIZE: 2147
TOUR_SECTION
0
8
58
20
21
85
51
12
49
55
70
67
50
18
63
93
15
13
76
28
11
35
66
6
3
27
37
32
71
46
31
47
29
86
1
77
4
92
14
68
40
83
54
84
79
10
82
33
39
48
2
69
75
25
62
73
45
80
19
34
9
5
23
24
43
81
17
36
38
65
30
26
74
90
88
56
72
42
57
53
94
60
22
44
91
16
7
64
89
52
59
87
78
61
41
0
EOF
